CMD:
./solvers/bin/cadical --plain --no-reduce -t 1600 ./data/cnfs//circular_pointer_top_w128_d8_e0/circular_pointer_top_w128_d8_e0.33.cnf

c --- [ banner ] -------------------------------------------------------------
c 
c CaDiCaL SAT Solver
c Copyright (c) 2016-2024
c A. Biere, M. Fleury, N. Froleyks, K. Fazekas, F. Pollitt, T. Faller
c JKU Linz, University of Freiburg, TU Wien
c 
c Version 2.1.3 5296d3d2a9bf48c154ab2acb5e44625776d821bf
c g++ (Gentoo 12.3.1_p20230526 p2) 12.3.1 20230526 -Wall -Wextra -O3 -DNDEBUG
c Sat Aug 9 07:26:21 PDT 2025 Linux cedar2.int.cedar.computecanada.ca 5.14.0-362.24.2.el9_3.x86_64 x86_64
c 
c --- [ limit ] --------------------------------------------------------------
c 
c setting time limit to 1600 seconds real time (due to '-t 1600')
c 
c --- [ parsing input ] ------------------------------------------------------
c 
c reading DIMACS file from './data/cnfs//circular_pointer_top_w128_d8_e0/circular_pointer_top_w128_d8_e0.33.cnf'
c opening file to read './data/cnfs//circular_pointer_top_w128_d8_e0/circular_pointer_top_w128_d8_e0.33.cnf'
c found 'p cnf 328520 955027' header
c parsed 955027 clauses in 0.17 seconds process time
c 
c --- [ options ] ------------------------------------------------------------
c 
c   --compact=false                (different from default 'true')
c   --decompose=false              (different from default 'true')
c   --deduplicate=false            (different from default 'true')
c   --elim=false                   (different from default 'true')
c   --probe=false                  (different from default 'true')
c   --reduce=false                 (different from default 'true')
c   --subsume=false                (different from default 'true')
c   --ternary=false                (different from default 'true')
c   --transred=false               (different from default 'true')
c   --vivify=false                 (different from default 'true')
c 
c --- [ solving ] ------------------------------------------------------------
c 
c time measured in process time since initialization
c 
c  seconds   reductions  redundant  irredundant
c          MB    restarts       trail       variables
c           level   conflicts       glue          remaining
c 
c *  0.17 151  0 0   0    0    0  0% 0 918699 309129 94%
c {  0.22 157  0 0   0    0    0  0% 0 918699 309129 94%
c i  0.27 158 5577 0   0  135  129 62% 5 918699 309122 94%
c i  0.28 158 5372 0   0  201  187 66% 4 918699 309113 94%
c i  0.34 158 4853 0   0  651  596 62% 3 918699 309105 94%
c i  0.34 158 4845 0   0  658  602 62% 3 918699 305875 93%
c i  0.35 158 4797 0   0  695  637 62% 3 918699 305867 93%
c i  0.35 158 4763 0   0  717  657 61% 3 918699 305216 93%
c i  0.35 158 4759 0   0  719  658 61% 3 918699 305208 93%
c i  0.38 158 4397 0   0  908  823 58% 3 918699 305202 93%
c i  0.38 158 4350 0   0  930  840 57% 3 918699 305197 93%
c i  0.39 158 4262 0   0  968  875 56% 2 918699 304541 93%
c }  0.40 158 4184 0   0 1000  905 56% 2 918699 304541 93%
c [  0.40 158  0 0   0 1000  905  0% 0 918699 304541 93%
c O  0.44 159 5604 0   0 1005  910 62% 2 918699 304541 93%
c ]  1.40 159 1135 0   0 1981 1811 44% 6 918699 304541 93%
c 1  1.40 159 1135 0   0 1981 1811 44% 6 918699 304541 93%
c 
c --- [ result ] -------------------------------------------------------------
c 
s SATISFIABLE
v 1 2 3 4 5 6 7 8 9 10 11 12 13 14 15 16 17 18 19 20 21 22 23 24 25 26 27 28
v 29 30 31 32 33 34 35 36 37 38 39 40 41 42 43 44 45 46 47 48 49 50 51 52 53
v 54 55 56 57 58 59 60 61 62 63 64 65 66 67 68 69 70 71 72 73 74 75 76 77 78
v 79 80 81 82 83 84 85 86 87 88 89 90 91 92 93 94 95 96 97 98 99 100 101 102
v 103 104 105 106 107 108 109 110 111 112 113 114 115 116 117 118 119 120 121
v 122 123 124 125 126 127 128 129 130 131 132 133 134 135 136 137 138 139 140
v 141 142 143 144 145 146 147 148 149 150 151 152 153 154 155 156 157 158 159
v 160 161 162 163 164 165 166 167 168 169 170 171 172 173 174 175 176 177 178
v 179 180 181 182 183 184 185 186 187 188 189 190 191 192 193 194 195 196 197
v 198 199 200 201 202 203 204 205 206 207 208 209 210 211 212 213 214 215 216
v 217 218 219 220 221 222 223 224 225 226 227 228 229 230 231 232 233 234 235
v 236 237 238 239 240 241 242 243 244 245 246 247 248 249 250 251 252 253 254
v 255 256 257 258 259 260 261 262 263 264 265 266 267 268 269 270 271 272 273
v 274 275 276 277 278 279 280 281 282 283 284 285 286 287 288 289 290 291 292
v 293 294 295 296 297 298 299 300 301 302 303 304 305 306 307 308 309 310 311
v 312 313 314 315 316 317 318 319 320 321 322 323 324 325 326 327 328 329 330
v 331 332 333 334 335 336 337 338 339 340 341 342 343 344 345 346 347 348 349
v 350 351 352 353 354 355 356 357 358 359 360 361 362 363 364 365 366 367 368
v 369 370 371 372 373 374 375 376 377 378 379 380 381 382 383 384 385 386 387
v 388 389 390 391 392 393 394 395 396 397 398 399 400 401 402 403 404 405 406
v 407 408 409 410 411 412 413 414 415 416 417 418 419 420 421 422 423 424 425
v 426 427 428 429 430 431 432 433 434 435 436 437 438 439 440 441 442 443 444
v 445 446 447 448 449 450 451 452 453 454 455 456 457 458 459 460 461 462 463
v 464 465 466 467 468 469 470 471 472 473 474 475 476 477 478 479 480 481 482
v 483 484 485 486 487 488 489 490 491 492 493 494 495 496 497 498 499 500 501
v 502 503 504 505 506 507 508 509 510 511 512 513 514 515 516 517 518 519 520
v 521 522 523 524 525 526 527 528 529 530 531 532 533 534 535 536 537 538 539
v 540 541 542 543 544 545 546 547 548 549 550 551 552 553 554 555 556 557 558
v 559 560 561 562 563 564 565 566 567 568 569 570 571 572 573 574 575 576 577
v 578 579 580 581 582 583 584 585 586 587 588 589 590 591 592 593 594 595 596
v 597 598 599 600 601 602 603 604 605 606 607 608 609 610 611 612 613 614 615
v 616 617 618 619 620 621 622 623 624 625 626 627 628 629 630 631 632 633 634
v 635 636 637 638 639 640 641 642 643 644 645 646 647 648 649 650 651 652 653
... skipped 31724 lines ...
v 328000 -328001 328002 -328003 328004 -328005 328006 -328007 328008 -328009
v -328010 328011 -328012 328013 -328014 328015 -328016 328017 -328018 328019
v -328020 328021 -328022 328023 -328024 328025 -328026 328027 -328028 328029
v -328030 328031 -328032 328033 -328034 328035 -328036 328037 -328038 328039
v -328040 328041 -328042 328043 -328044 328045 -328046 328047 -328048 328049
v -328050 328051 -328052 328053 -328054 328055 -328056 328057 -328058 328059
v -328060 328061 -328062 328063 -328064 328065 -328066 328067 -328068 328069
v -328070 328071 -328072 328073 -328074 328075 -328076 328077 -328078 328079
v -328080 328081 -328082 328083 -328084 328085 -328086 328087 -328088 328089
v -328090 328091 -328092 328093 -328094 328095 -328096 328097 -328098 328099
v -328100 328101 -328102 328103 -328104 328105 -328106 328107 -328108 328109
v -328110 328111 -328112 328113 -328114 328115 -328116 328117 -328118 328119
v -328120 328121 -328122 328123 -328124 328125 -328126 328127 -328128 328129
v -328130 328131 -328132 328133 -328134 328135 -328136 328137 -328138 328139
v -328140 328141 -328142 328143 -328144 328145 -328146 328147 -328148 328149
v -328150 328151 -328152 328153 -328154 328155 -328156 328157 -328158 328159
v -328160 328161 -328162 328163 -328164 328165 -328166 328167 -328168 328169
v -328170 328171 -328172 328173 -328174 328175 -328176 328177 -328178 328179
v -328180 328181 -328182 328183 -328184 328185 -328186 328187 -328188 328189
v -328190 328191 -328192 328193 -328194 328195 -328196 328197 -328198 328199
v -328200 328201 -328202 328203 -328204 328205 -328206 328207 -328208 328209
v -328210 328211 -328212 328213 -328214 328215 -328216 328217 -328218 328219
v -328220 328221 -328222 328223 -328224 328225 -328226 328227 -328228 328229
v -328230 328231 -328232 328233 -328234 328235 -328236 328237 -328238 328239
v -328240 328241 -328242 328243 -328244 328245 -328246 328247 -328248 328249
v -328250 328251 -328252 328253 -328254 328255 -328256 328257 -328258 328259
v -328260 328261 -328262 328263 -328264 328265 -328266 328267 -328268 328269
v -328270 328271 -328272 328273 -328274 328275 -328276 328277 -328278 328279
v -328280 328281 -328282 328283 -328284 328285 -328286 328287 -328288 328289
v -328290 328291 -328292 328293 -328294 328295 -328296 328297 -328298 328299
v -328300 328301 -328302 328303 -328304 328305 -328306 328307 -328308 328309
v -328310 328311 -328312 328313 -328314 328315 -328316 328317 -328318 328319
v -328320 328321 -328322 328323 -328324 328325 -328326 328327 -328328 328329
v -328330 328331 -328332 328333 -328334 328335 -328336 328337 -328338 328339
v -328340 328341 -328342 328343 -328344 328345 -328346 328347 -328348 328349
v -328350 328351 -328352 328353 -328354 328355 -328356 328357 -328358 328359
v -328360 328361 -328362 328363 -328364 328365 -328366 328367 -328368 328369
v -328370 328371 -328372 328373 -328374 328375 -328376 328377 -328378 328379
v -328380 328381 -328382 328383 -328384 328385 -328386 328387 -328388 328389
v -328390 328391 -328392 328393 -328394 328395 -328396 328397 -328398 328399
v -328400 328401 -328402 328403 -328404 328405 -328406 328407 -328408 328409
v -328410 328411 -328412 328413 -328414 328415 -328416 328417 -328418 328419
v -328420 328421 -328422 328423 -328424 328425 -328426 328427 -328428 328429
v -328430 328431 -328432 328433 -328434 328435 -328436 328437 -328438 328439
v -328440 328441 -328442 328443 -328444 328445 -328446 328447 -328448 328449
v -328450 328451 -328452 328453 -328454 328455 -328456 328457 -328458 328459
v -328460 328461 -328462 328463 -328464 328465 -328466 328467 -328468 328469
v -328470 328471 -328472 328473 -328474 328475 -328476 328477 -328478 328479
v -328480 328481 -328482 328483 -328484 328485 -328486 328487 -328488 328489
v -328490 328491 -328492 328493 -328494 328495 -328496 328497 -328498 328499
v -328500 328501 -328502 328503 -328504 328505 -328506 328507 -328508 328509
v -328510 -328511 328512 -328513 -328514 328515 -328516 328517 -328518 328519
v -328520 0
c 
c --- [ run-time profiling ] -------------------------------------------------
c 
c process time taken by individual solving procedures
c (percentage relative to process time for solving)
c 
c         1.23   99.99% search
c         1.00   81.55% stable
c         0.17   14.18% unstable
c         0.17   13.75% parse
c         0.05    4.25% lucky
c         0.00    0.00% simplify
c   =================================
c         1.23   86.81% solve
c 
c last line shows process time for solving
c (percentage relative to total process time)
c 
c --- [ statistics ] ---------------------------------------------------------
c 
c chronological:               895        45.18 %  of conflicts
c conflicts:                  1981      1608.77    per second
c decisions:                 45038     36575.46    per second
c fixed:                     23978         7.30 %  of all variables
c learned:                    1901        95.96 %  per conflict
c learned_lits:              57461       100.00 %  learned literals
c minimized:                     0         0.00 %  learned literals
c shrunken:                  17547        30.54 %  learned literals
c minishrunken:               6300        10.96 %  learned literals
c otfs:                         79         3.99 %  of conflict
c propagations:           13476513        10.94 M  per second
c rephased:                      1      1981.00    interval
c stabilizing:                   1        49.52 %  of conflicts
c subsumed:                     80         0.01 %  of all clauses
c strengthened:                 79         0.01 %  of all clauses
c 
c seconds are measured in process time for solving
c 
c --- [ resources ] ----------------------------------------------------------
c 
c total process time since initialization:         1.42    seconds
c total real time since initialization:            1.43    seconds
c maximum resident set size of process:          158.23    MB
c 
c --- [ shutting down ] ------------------------------------------------------
c 
c exit 10
